5 15
50201 44208 58800 51130 4940
330 153 234 117 510 928 541 148 291 360 434 148 560 321 583
1324 1975 1506 1938 2010
1171 1194 1113 1104 1276 1089 382 517 28 1025 1240 969 841 981 934
1230 1239 1143 954 1222 942 1252 955 1042 944 664 1046 715 924 1044
1227 893 1179 916 1234 953 975 1093 1070 783 987 1247 1054 1323 1069
1478 985 1248 1102 753 1053 935 936 963 826 1185 1691 640 1164 970
1123 953 1253 953 862 1285 1296 974 935 1070 1041 185 847 1056 530
